p edge 10 80
e 9 2
e 2 5
e 5 3
e 4 8
e 4 1
e 3 8
e 1 2
e 9 6
e 5 9
e 8 9
e 7 8
e 3 1
e 1 9
e 8 2
e 8 6
e 10 2
e 6 10
e 3 2
e 10 1
e 10 3
e 3 4
e 4 10
e 4 5
e 5 8
e 10 6
e 7 1
e 3 9
e 8 10
e 4 3
e 8 4
e 6 1
e 9 4
e 6 9
e 2 3
e 4 7
e 9 3
e 2 8
e 1 6
e 8 7
e 7 9
e 2 4
e 4 6
e 2 10
e 5 7
e 8 1
e 7 3
e 4 9
e 1 10
e 9 7
e 9 10
e 10 4
e 7 5
e 10 8
e 5 4
e 6 8
e 9 8
e 2 7
e 3 6
e 1 5
e 4 2
e 5 2
e 6 2
e 2 9
e 7 2
e 10 9
e 2 1
e 5 10
e 6 5
e 7 4
e 1 8
e 9 5
e 1 4
e 6 4
e 5 6
e 3 7
e 5 1
e 8 3
e 6 3
e 3 10
e 8 5
